
******************************************************************************
This program contains Ipopt, a library for large-scale nonlinear optimization.
 Ipopt is released as open source code under the Eclipse Public License (EPL).
         For more information visit http://projects.coin-or.org/Ipopt

This version of Ipopt was compiled from source code available at
    https://github.com/IDAES/Ipopt as part of the Institute for the Design of
    Advanced Energy Systems Process Systems Engineering Framework (IDAES PSE
    Framework) Copyright (c) 2018-2019. See https://github.com/IDAES/idaes-pse.

This version of Ipopt was compiled using HSL, a collection of Fortran codes
    for large-scale scientific computation.  All technical papers, sales and
    publicity material resulting from use of the HSL codes within IPOPT must
    contain the following acknowledgement:
        HSL, a collection of Fortran codes for large-scale scientific
        computation. See http://www.hsl.rl.ac.uk.
******************************************************************************

This is Ipopt version 3.13.2, running with linear solver ma27.

Number of nonzeros in equality constraint Jacobian...:      808
Number of nonzeros in inequality constraint Jacobian.:        0
Number of nonzeros in Lagrangian Hessian.............:      702

Total number of variables............................:      351
                     variables with only lower bounds:      108
                variables with lower and upper bounds:      189
                     variables with only upper bounds:        0
Total number of equality constraints.................:      350
Total number of inequality constraints...............:        0
        inequality constraints with only lower bounds:        0
   inequality constraints with lower and upper bounds:        0
        inequality constraints with only upper bounds:        0

iter    objective    inf_pr   inf_du lg(mu)  ||d||  lg(rg) alpha_du alpha_pr  ls
   0  0.0000000e+00 4.85e-01 2.84e-14  -1.0 0.00e+00    -  0.00e+00 0.00e+00   0
   1  5.5765199e-01 2.93e-01 6.06e+04  -1.0 1.27e+05    -  6.62e-01 3.99e-01h  1
   2  5.7263096e-01 2.90e-01 6.04e+04  -1.0 7.68e+04    -  8.55e-01 9.29e-03h  1
   3  8.9863536e+00 9.25e-02 4.25e+04  -1.0 2.30e+05    -  7.66e-01 7.55e-01h  1
   4  1.8305694e+01 5.01e-03 6.54e+03  -1.0 8.48e+04    -  9.08e-01 9.90e-01h  1
   5  1.8868089e+01 6.28e-05 4.07e+01  -1.0 4.35e+03    -  9.88e-01 9.90e-01h  1
   6  1.8910151e+01 5.90e-06 1.58e+01  -1.0 3.01e+02    -  9.90e-01 9.90e-01h  1
   7  1.8892275e+01 1.57e-06 7.39e+02  -1.7 1.26e+02    -  9.90e-01 9.90e-01h  1
   8  1.8876311e+01 1.23e-06 1.49e+05  -2.5 1.12e+02    -  9.98e-01 9.97e-01h  1
   9  1.8876880e+01 5.36e-09 1.94e+08  -2.5 3.99e+00    -  1.00e+00 9.97e-01h  1
In iteration 9, 27 Slacks too small, adjusting variable bounds
iter    objective    inf_pr   inf_du lg(mu)  ||d||  lg(rg) alpha_du alpha_pr  ls
  10  1.8876881e+01 1.93e-10 6.84e+10  -2.5 1.04e-02    -  1.00e+00 9.97e-01h  1
  11  1.8876881e+01 8.25e-11 1.80e-03  -2.5 3.01e-05    -  1.00e+00 1.00e+00H  1
  12  1.8876837e+01 9.72e-11 6.78e+10  -9.0 2.00e+01    -  1.00e+00 1.55e-02f  7
  13  1.8876815e+01 5.23e-11 6.72e+10  -9.0 1.96e+01    -  1.00e+00 7.81e-03f  8
  14  1.8874036e+01 6.82e-11 6.45e-03  -9.0 1.94e+01    -  1.00e+00 1.00e+00F  1
  15  1.8874036e+01 2.38e-11 1.33e-10  -9.0 8.93e-06    -  1.00e+00 1.00e+00H  1

Number of Iterations....: 15

                                   (scaled)                 (unscaled)
Objective...............:   1.8874035741078234e+01    1.8874035741078234e+01
Dual infeasibility......:   1.3325275238660330e-10    1.3325275238660330e-10
Constraint violation....:   2.3819168859517958e-11    2.3819168859517958e-11
Complementarity.........:   9.0909090909094787e-10    9.0909090909094787e-10
Overall NLP error.......:   7.4158539914876332e-11    9.0909090909094787e-10


Number of objective function evaluations             = 37
Number of objective gradient evaluations             = 16
Number of equality constraint evaluations            = 37
Number of inequality constraint evaluations          = 0
Number of equality constraint Jacobian evaluations   = 16
Number of inequality constraint Jacobian evaluations = 0
Number of Lagrangian Hessian evaluations             = 15
Total CPU secs in IPOPT (w/o function evaluations)   =      0.035
Total CPU secs in NLP function evaluations           =      0.363

EXIT: Optimal Solution Found.
